c instance by G2
c solution = 011100011010110
c Known solution cost is 669 
p cnf 15 30
w 78 9 51 55 32 61 35 34 28 19 83 4 49 65 66
-5 -4 -14 0
2 5 -10 0
15 10 9 0
4 -2 -12 0
-15 -3 -4 0
-4 -8 -6 0
6 4 12 0
11 -8 12 0
-1 5 -8 0
-13 3 1 0
-14 -10 12 0
13 15 -3 0
5 -7 12 0
-9 2 5 0
2 -13 14 0
11 -8 7 0
-1 10 -3 0
7 9 -15 0
12 2 15 0
6 12 2 0
15 11 -5 0
14 13 15 0
12 -4 14 0
13 12 7 0
13 3 12 0
8 -14 -11 0
-2 9 11 0
13 -9 5 0
7 -12 -9 0
2 7 -11 0
